p cnf 20 15
3 -15 -8 19 12 -17 1 -5 -16 -11 0
3 20 9 12 -5 10 -16 -14 -18 7 0
-11 19 10 8 6 -12 3 -5 13 17 0
11 16 10 -8 15 5 -6 18 -13 12 0
9 4 10 -11 -15 8 14 -7 -17 -13 0
-16 6 -10 -14 7 2 -11 -18 9 15 0
-13 9 -20 -5 17 -19 -7 -11 -15 16 0
-8 15 19 20 17 7 6 -16 -13 18 0
14 2 13 -1 -5 -7 10 -16 15 8 0
-2 9 14 -15 20 13 11 12 8 1 0
13 -8 9 10 -3 -12 16 -17 15 18 0
2 20 19 -15 13 3 7 -4 -6 10 0
14 -12 13 8 18 -5 11 -2 15 10 0
15 -10 7 -20 -8 -2 5 6 16 4 0
11 15 14 -7 -19 -10 -12 -1 -3 -4 0
